Pt3
1.0
   2.7688703088210715    0.0000000000000000    0.1694521110199125
   1.3792500040194851    2.4008982097296721    0.1694521110199124
   0.0000000000000000    0.0000000000000000   22.7065828766681648
Pt
3
direct
   0.9999999999999996    0.3000000000000002    0.4000000000000000 Pt
   0.3000000000000000    0.6000000000000003    0.5000000000000000 Pt
   0.5999999999999998    0.9000000000000004    0.6000000000000000 Pt
