Pt27
1.0
   8.3066109264632146    0.0000000000000000    0.5083563330597374
   4.1377500120584552    7.2026946291890166    0.5083563330597374
   0.0000000000000000    0.0000000000000000   22.7065828766681648
Pt
27
direct
   0.3333333333333332    0.1000000000000001    0.4000000000000000 Pt
   0.3333333333333333    0.4333333333333333    0.4000000000000000 Pt
   0.3333333333333332    0.7666666666666667    0.4000000000000000 Pt
   0.6666666666666665    0.1000000000000001    0.4000000000000000 Pt
   0.6666666666666665    0.4333333333333333    0.4000000000000000 Pt
   0.6666666666666665    0.7666666666666667    0.4000000000000000 Pt
   0.0000000000000000    0.1000000000000001    0.4000000000000000 Pt
   0.9999999999999998    0.4333333333333333    0.4000000000000000 Pt
   0.9999999999999998    0.7666666666666667    0.4000000000000000 Pt
   0.1000000000000000    0.2000000000000001    0.4999999999999999 Pt
   0.1000000000000000    0.5333333333333334    0.4999999999999999 Pt
   0.1000000000000000    0.8666666666666667    0.4999999999999999 Pt
   0.4333333333333333    0.2000000000000001    0.4999999999999999 Pt
   0.4333333333333334    0.5333333333333334    0.4999999999999999 Pt
   0.4333333333333334    0.8666666666666667    0.4999999999999999 Pt
   0.7666666666666667    0.2000000000000001    0.4999999999999999 Pt
   0.7666666666666668    0.5333333333333334    0.4999999999999999 Pt
   0.7666666666666666    0.8666666666666667    0.4999999999999999 Pt
   0.2000000000000000    0.3000000000000001    0.6000000000000000 Pt
   0.2000000000000000    0.6333333333333334    0.6000000000000000 Pt
   0.2000000000000001    0.9666666666666667    0.5999999999999999 Pt
   0.5333333333333333    0.3000000000000001    0.6000000000000000 Pt
   0.5333333333333333    0.6333333333333334    0.5999999999999999 Pt
   0.5333333333333333    0.9666666666666667    0.6000000000000000 Pt
   0.8666666666666666    0.3000000000000001    0.5999999999999999 Pt
   0.8666666666666666    0.6333333333333334    0.6000000000000000 Pt
   0.8666666666666668    0.9666666666666667    0.6000000000000000 Pt
