Pt300
1.0
  27.6887030882107155    0.0000000000000000    1.6945211101991249
  13.7925000401948505   24.0089820972967196    1.6945211101991244
   0.0000000000000000    0.0000000000000000   22.7065828766681648
Pt
300
direct
   0.1000000000000000    0.0300000000000000    0.4000000000000000 Pt
   0.1000000000000000    0.1300000000000000    0.4000000000000000 Pt
   0.1000000000000000    0.2300000000000000    0.4000000000000000 Pt
   0.1000000000000000    0.3300000000000001    0.4000000000000000 Pt
   0.1000000000000000    0.4300000000000000    0.4000000000000000 Pt
   0.0999999999999999    0.5300000000000000    0.4000000000000000 Pt
   0.1000000000000000    0.6300000000000000    0.4000000000000000 Pt
   0.0999999999999999    0.7300000000000001    0.4000000000000000 Pt
   0.0999999999999999    0.8300000000000001    0.4000000000000000 Pt
   0.0999999999999999    0.9300000000000000    0.4000000000000000 Pt
   0.2000000000000000    0.0300000000000000    0.4000000000000000 Pt
   0.2000000000000000    0.1300000000000000    0.4000000000000000 Pt
   0.1999999999999999    0.2300000000000000    0.4000000000000000 Pt
   0.2000000000000000    0.3300000000000001    0.4000000000000000 Pt
   0.2000000000000000    0.4300000000000000    0.4000000000000000 Pt
   0.2000000000000000    0.5300000000000000    0.4000000000000000 Pt
   0.2000000000000000    0.6300000000000000    0.4000000000000000 Pt
   0.1999999999999999    0.7300000000000001    0.4000000000000000 Pt
   0.2000000000000000    0.8300000000000001    0.4000000000000000 Pt
   0.1999999999999999    0.9300000000000000    0.4000000000000000 Pt
   0.3000000000000000    0.0300000000000000    0.4000000000000000 Pt
   0.2999999999999999    0.1300000000000000    0.4000000000000000 Pt
   0.2999999999999999    0.2300000000000000    0.4000000000000000 Pt
   0.2999999999999999    0.3300000000000001    0.4000000000000000 Pt
   0.3000000000000000    0.4300000000000000    0.4000000000000000 Pt
   0.3000000000000000    0.5300000000000000    0.4000000000000000 Pt
   0.3000000000000000    0.6300000000000000    0.4000000000000000 Pt
   0.2999999999999999    0.7300000000000001    0.4000000000000000 Pt
   0.2999999999999999    0.8300000000000001    0.4000000000000000 Pt
   0.3000000000000000    0.9300000000000000    0.4000000000000000 Pt
   0.4000000000000000    0.0300000000000000    0.4000000000000000 Pt
   0.4000000000000000    0.1300000000000000    0.4000000000000000 Pt
   0.4000000000000001    0.2300000000000000    0.4000000000000000 Pt
   0.4000000000000000    0.3300000000000001    0.4000000000000000 Pt
   0.4000000000000000    0.4300000000000000    0.4000000000000000 Pt
   0.4000000000000000    0.5300000000000000    0.4000000000000000 Pt
   0.4000000000000001    0.6300000000000000    0.4000000000000000 Pt
   0.4000000000000000    0.7300000000000001    0.4000000000000000 Pt
   0.4000000000000000    0.8300000000000001    0.4000000000000000 Pt
   0.4000000000000000    0.9300000000000000    0.4000000000000000 Pt
   0.4999999999999999    0.0300000000000000    0.4000000000000000 Pt
   0.5000000000000000    0.1300000000000000    0.4000000000000000 Pt
   0.4999999999999999    0.2300000000000000    0.4000000000000000 Pt
   0.5000000000000000    0.3300000000000001    0.4000000000000000 Pt
   0.4999999999999999    0.4300000000000000    0.4000000000000000 Pt
   0.5000000000000000    0.5300000000000000    0.4000000000000000 Pt
   0.5000000000000000    0.6300000000000000    0.4000000000000000 Pt
   0.5000000000000001    0.7300000000000001    0.4000000000000000 Pt
   0.4999999999999999    0.8300000000000001    0.4000000000000000 Pt
   0.4999999999999999    0.9300000000000000    0.4000000000000000 Pt
   0.6000000000000001    0.0300000000000000    0.4000000000000000 Pt
   0.6000000000000000    0.1300000000000000    0.4000000000000000 Pt
   0.6000000000000001    0.2300000000000000    0.4000000000000000 Pt
   0.6000000000000000    0.3300000000000001    0.4000000000000000 Pt
   0.6000000000000001    0.4300000000000000    0.4000000000000000 Pt
   0.6000000000000000    0.5300000000000000    0.4000000000000000 Pt
   0.6000000000000000    0.6300000000000000    0.4000000000000000 Pt
   0.6000000000000001    0.7300000000000001    0.4000000000000000 Pt
   0.5999999999999999    0.8300000000000001    0.4000000000000000 Pt
   0.6000000000000000    0.9300000000000000    0.4000000000000000 Pt
   0.7000000000000002    0.0300000000000000    0.4000000000000000 Pt
   0.7000000000000002    0.1300000000000000    0.4000000000000000 Pt
   0.7000000000000002    0.2300000000000000    0.4000000000000000 Pt
   0.7000000000000001    0.3300000000000001    0.4000000000000000 Pt
   0.7000000000000002    0.4300000000000000    0.4000000000000000 Pt
   0.7000000000000002    0.5300000000000000    0.4000000000000000 Pt
   0.7000000000000001    0.6300000000000000    0.4000000000000000 Pt
   0.7000000000000002    0.7300000000000001    0.3999999999999999 Pt
   0.7000000000000000    0.8300000000000001    0.4000000000000000 Pt
   0.7000000000000001    0.9300000000000000    0.4000000000000000 Pt
   0.8000000000000002    0.0300000000000000    0.4000000000000000 Pt
   0.8000000000000002    0.1300000000000000    0.4000000000000000 Pt
   0.8000000000000003    0.2300000000000000    0.4000000000000000 Pt
   0.8000000000000000    0.3300000000000001    0.4000000000000000 Pt
   0.8000000000000002    0.4300000000000000    0.4000000000000000 Pt
   0.8000000000000002    0.5300000000000000    0.4000000000000000 Pt
   0.8000000000000002    0.6300000000000000    0.4000000000000000 Pt
   0.8000000000000003    0.7300000000000001    0.4000000000000000 Pt
   0.8000000000000000    0.8300000000000001    0.4000000000000000 Pt
   0.7999999999999999    0.9300000000000000    0.4000000000000000 Pt
   0.9000000000000000    0.0300000000000000    0.4000000000000000 Pt
   0.9000000000000000    0.1300000000000000    0.4000000000000000 Pt
   0.9000000000000001    0.2300000000000000    0.4000000000000000 Pt
   0.8999999999999999    0.3300000000000001    0.4000000000000000 Pt
   0.9000000000000000    0.4300000000000000    0.4000000000000000 Pt
   0.8999999999999998    0.5300000000000000    0.4000000000000000 Pt
   0.9000000000000000    0.6300000000000000    0.4000000000000000 Pt
   0.8999999999999999    0.7300000000000001    0.4000000000000000 Pt
   0.8999999999999999    0.8300000000000001    0.4000000000000000 Pt
   0.8999999999999998    0.9300000000000000    0.4000000000000000 Pt
   0.0000000000000000    0.0300000000000000    0.4000000000000000 Pt
   0.0000000000000002    0.1300000000000000    0.4000000000000000 Pt
   0.0000000000000000    0.2300000000000000    0.4000000000000000 Pt
   0.9999999999999998    0.3300000000000001    0.4000000000000000 Pt
   0.0000000000000000    0.4300000000000000    0.4000000000000000 Pt
   0.9999999999999999    0.5300000000000000    0.4000000000000000 Pt
   0.9999999999999997    0.6300000000000000    0.4000000000000000 Pt
   0.0000000000000000    0.7300000000000001    0.4000000000000000 Pt
   0.9999999999999998    0.8300000000000001    0.4000000000000000 Pt
   0.9999999999999997    0.9300000000000000    0.4000000000000000 Pt
   0.0300000000000000    0.0600000000000000    0.4999999999999999 Pt
   0.0300000000000000    0.1600000000000001    0.4999999999999999 Pt
   0.0300000000000000    0.2600000000000000    0.4999999999999999 Pt
   0.0300000000000000    0.3600000000000001    0.4999999999999999 Pt
   0.0300000000000000    0.4600000000000001    0.4999999999999999 Pt
   0.0300000000000000    0.5600000000000001    0.5000000000000000 Pt
   0.0300000000000000    0.6600000000000001    0.4999999999999999 Pt
   0.0300000000000000    0.7600000000000000    0.4999999999999999 Pt
   0.0300000000000000    0.8600000000000000    0.5000000000000000 Pt
   0.0300000000000000    0.9600000000000000    0.4999999999999999 Pt
   0.1300000000000000    0.0600000000000000    0.4999999999999999 Pt
   0.1300000000000000    0.1600000000000001    0.4999999999999999 Pt
   0.1300000000000000    0.2600000000000000    0.4999999999999999 Pt
   0.1300000000000000    0.3600000000000001    0.4999999999999999 Pt
   0.1299999999999999    0.4600000000000001    0.5000000000000000 Pt
   0.1300000000000000    0.5600000000000001    0.4999999999999999 Pt
   0.1300000000000000    0.6600000000000001    0.4999999999999999 Pt
   0.1300000000000000    0.7600000000000000    0.4999999999999999 Pt
   0.1300000000000000    0.8600000000000000    0.4999999999999999 Pt
   0.1300000000000001    0.9600000000000000    0.4999999999999999 Pt
   0.2300000000000000    0.0600000000000000    0.4999999999999999 Pt
   0.2300000000000000    0.1600000000000001    0.4999999999999999 Pt
   0.2300000000000000    0.2600000000000000    0.4999999999999999 Pt
   0.2300000000000000    0.3600000000000001    0.5000000000000000 Pt
   0.2300000000000000    0.4600000000000001    0.4999999999999999 Pt
   0.2300000000000000    0.5600000000000001    0.4999999999999999 Pt
   0.2300000000000000    0.6600000000000001    0.4999999999999999 Pt
   0.2300000000000001    0.7600000000000000    0.4999999999999999 Pt
   0.2300000000000000    0.8600000000000000    0.4999999999999999 Pt
   0.2300000000000001    0.9600000000000000    0.4999999999999999 Pt
   0.3300000000000001    0.0600000000000000    0.4999999999999999 Pt
   0.3300000000000001    0.1600000000000001    0.4999999999999999 Pt
   0.3300000000000001    0.2600000000000000    0.5000000000000000 Pt
   0.3300000000000000    0.3600000000000001    0.4999999999999999 Pt
   0.3300000000000001    0.4600000000000001    0.4999999999999999 Pt
   0.3300000000000000    0.5600000000000001    0.4999999999999999 Pt
   0.3300000000000001    0.6600000000000001    0.4999999999999999 Pt
   0.3300000000000001    0.7600000000000000    0.4999999999999999 Pt
   0.3300000000000002    0.8600000000000000    0.4999999999999999 Pt
   0.3300000000000000    0.9600000000000000    0.4999999999999999 Pt
   0.4300000000000000    0.0600000000000000    0.4999999999999999 Pt
   0.4300000000000000    0.1600000000000001    0.5000000000000000 Pt
   0.4300000000000000    0.2600000000000000    0.4999999999999999 Pt
   0.4300000000000000    0.3600000000000001    0.4999999999999999 Pt
   0.4300000000000000    0.4600000000000001    0.4999999999999999 Pt
   0.4300000000000001    0.5600000000000001    0.4999999999999999 Pt
   0.4300000000000000    0.6600000000000001    0.4999999999999999 Pt
   0.4300000000000001    0.7600000000000000    0.4999999999999999 Pt
   0.4300000000000000    0.8600000000000000    0.4999999999999999 Pt
   0.4300000000000001    0.9600000000000000    0.4999999999999999 Pt
   0.5299999999999999    0.0600000000000000    0.5000000000000000 Pt
   0.5300000000000001    0.1600000000000001    0.4999999999999999 Pt
   0.5300000000000001    0.2600000000000000    0.4999999999999999 Pt
   0.5299999999999999    0.3600000000000001    0.4999999999999999 Pt
   0.5300000000000000    0.4600000000000001    0.4999999999999999 Pt
   0.5300000000000001    0.5600000000000001    0.4999999999999999 Pt
   0.5300000000000001    0.6600000000000001    0.4999999999999999 Pt
   0.5300000000000001    0.7600000000000000    0.4999999999999999 Pt
   0.5300000000000000    0.8600000000000000    0.4999999999999999 Pt
   0.5300000000000000    0.9600000000000000    0.4999999999999999 Pt
   0.6300000000000001    0.0600000000000000    0.4999999999999999 Pt
   0.6300000000000002    0.1600000000000001    0.4999999999999999 Pt
   0.6300000000000002    0.2600000000000000    0.4999999999999999 Pt
   0.6300000000000001    0.3600000000000001    0.4999999999999999 Pt
   0.6300000000000001    0.4600000000000001    0.4999999999999999 Pt
   0.6300000000000002    0.5600000000000001    0.4999999999999999 Pt
   0.6300000000000002    0.6600000000000001    0.4999999999999999 Pt
   0.6300000000000002    0.7600000000000000    0.4999999999999999 Pt
   0.6300000000000002    0.8600000000000000    0.4999999999999999 Pt
   0.6300000000000003    0.9600000000000000    0.4999999999999999 Pt
   0.7300000000000002    0.0600000000000000    0.4999999999999999 Pt
   0.7300000000000002    0.1600000000000001    0.4999999999999999 Pt
   0.7300000000000002    0.2600000000000000    0.4999999999999999 Pt
   0.7300000000000001    0.3600000000000001    0.4999999999999999 Pt
   0.7300000000000002    0.4600000000000001    0.4999999999999999 Pt
   0.7300000000000002    0.5600000000000001    0.4999999999999999 Pt
   0.7300000000000002    0.6600000000000001    0.5000000000000000 Pt
   0.7300000000000003    0.7600000000000000    0.4999999999999999 Pt
   0.7300000000000001    0.8600000000000000    0.5000000000000000 Pt
   0.7300000000000002    0.9600000000000000    0.4999999999999999 Pt
   0.8300000000000001    0.0600000000000000    0.4999999999999999 Pt
   0.8300000000000001    0.1600000000000001    0.5000000000000000 Pt
   0.8300000000000001    0.2600000000000000    0.4999999999999999 Pt
   0.8299999999999998    0.3600000000000001    0.4999999999999999 Pt
   0.8300000000000000    0.4600000000000001    0.5000000000000000 Pt
   0.8300000000000001    0.5600000000000001    0.5000000000000000 Pt
   0.8300000000000001    0.6600000000000001    0.4999999999999999 Pt
   0.8300000000000002    0.7600000000000000    0.4999999999999999 Pt
   0.8300000000000000    0.8600000000000000    0.5000000000000000 Pt
   0.8300000000000001    0.9600000000000000    0.4999999999999999 Pt
   0.9300000000000000    0.0600000000000000    0.4999999999999999 Pt
   0.9300000000000002    0.1600000000000001    0.4999999999999999 Pt
   0.9300000000000002    0.2600000000000000    0.4999999999999999 Pt
   0.9299999999999999    0.3600000000000001    0.5000000000000000 Pt
   0.9299999999999998    0.4600000000000001    0.4999999999999999 Pt
   0.9300000000000002    0.5600000000000001    0.4999999999999999 Pt
   0.9299999999999999    0.6600000000000001    0.5000000000000000 Pt
   0.9300000000000003    0.7600000000000000    0.4999999999999999 Pt
   0.9300000000000000    0.8600000000000000    0.4999999999999999 Pt
   0.9299999999999999    0.9600000000000000    0.4999999999999999 Pt
   0.0600000000000000    0.0900000000000000    0.6000000000000000 Pt
   0.0600000000000000    0.1900000000000001    0.6000000000000000 Pt
   0.0600000000000000    0.2900000000000000    0.5999999999999999 Pt
   0.0600000000000000    0.3900000000000001    0.6000000000000000 Pt
   0.0600000000000000    0.4900000000000001    0.6000000000000000 Pt
   0.0599999999999999    0.5900000000000001    0.6000000000000000 Pt
   0.0600000000000000    0.6900000000000002    0.5999999999999999 Pt
   0.0599999999999999    0.7900000000000001    0.6000000000000000 Pt
   0.0599999999999999    0.8900000000000001    0.6000000000000000 Pt
   0.0600000000000000    0.9900000000000001    0.5999999999999999 Pt
   0.1600000000000000    0.0900000000000000    0.6000000000000000 Pt
   0.1600000000000000    0.1900000000000001    0.5999999999999999 Pt
   0.1600000000000000    0.2900000000000000    0.6000000000000000 Pt
   0.1600000000000000    0.3900000000000001    0.6000000000000000 Pt
   0.1599999999999999    0.4900000000000001    0.6000000000000000 Pt
   0.1600000000000000    0.5900000000000001    0.5999999999999999 Pt
   0.1600000000000000    0.6900000000000002    0.6000000000000000 Pt
   0.1599999999999999    0.7900000000000001    0.6000000000000000 Pt
   0.1600000000000000    0.8900000000000001    0.5999999999999999 Pt
   0.1599999999999999    0.9900000000000001    0.6000000000000000 Pt
   0.2600000000000000    0.0900000000000000    0.5999999999999999 Pt
   0.2600000000000000    0.1900000000000001    0.6000000000000000 Pt
   0.2600000000000000    0.2900000000000000    0.6000000000000000 Pt
   0.2600000000000000    0.3900000000000001    0.6000000000000000 Pt
   0.2600000000000000    0.4900000000000001    0.5999999999999999 Pt
   0.2600000000000001    0.5900000000000001    0.6000000000000000 Pt
   0.2600000000000000    0.6900000000000002    0.6000000000000000 Pt
   0.2599999999999999    0.7900000000000001    0.5999999999999999 Pt
   0.2600000000000000    0.8900000000000001    0.6000000000000000 Pt
   0.2600000000000000    0.9900000000000001    0.6000000000000000 Pt
   0.3600000000000000    0.0900000000000000    0.5999999999999999 Pt
   0.3600000000000001    0.1900000000000001    0.6000000000000000 Pt
   0.3600000000000001    0.2900000000000000    0.6000000000000000 Pt
   0.3600000000000000    0.3900000000000001    0.5999999999999999 Pt
   0.3600000000000000    0.4900000000000001    0.6000000000000000 Pt
   0.3600000000000000    0.5900000000000001    0.6000000000000000 Pt
   0.3600000000000000    0.6900000000000002    0.5999999999999999 Pt
   0.3600000000000000    0.7900000000000001    0.6000000000000000 Pt
   0.3600000000000000    0.8900000000000001    0.6000000000000000 Pt
   0.3600000000000000    0.9900000000000001    0.5999999999999999 Pt
   0.4600000000000000    0.0900000000000000    0.6000000000000000 Pt
   0.4600000000000000    0.1900000000000001    0.6000000000000000 Pt
   0.4600000000000000    0.2900000000000000    0.5999999999999999 Pt
   0.4600000000000000    0.3900000000000001    0.6000000000000000 Pt
   0.4600000000000000    0.4900000000000001    0.6000000000000000 Pt
   0.4600000000000000    0.5900000000000001    0.5999999999999999 Pt
   0.4600000000000000    0.6900000000000002    0.6000000000000000 Pt
   0.4600000000000001    0.7900000000000001    0.6000000000000000 Pt
   0.4599999999999999    0.8900000000000001    0.5999999999999999 Pt
   0.4600000000000000    0.9900000000000001    0.6000000000000000 Pt
   0.5599999999999999    0.0900000000000000    0.6000000000000000 Pt
   0.5599999999999999    0.1900000000000001    0.5999999999999999 Pt
   0.5600000000000001    0.2900000000000000    0.6000000000000000 Pt
   0.5599999999999999    0.3900000000000001    0.6000000000000000 Pt
   0.5600000000000001    0.4900000000000001    0.5999999999999999 Pt
   0.5599999999999999    0.5900000000000001    0.6000000000000000 Pt
   0.5600000000000001    0.6900000000000002    0.6000000000000000 Pt
   0.5600000000000001    0.7900000000000001    0.5999999999999999 Pt
   0.5600000000000001    0.8900000000000001    0.6000000000000000 Pt
   0.5600000000000001    0.9900000000000001    0.6000000000000000 Pt
   0.6600000000000001    0.0900000000000000    0.5999999999999999 Pt
   0.6600000000000001    0.1900000000000001    0.6000000000000000 Pt
   0.6600000000000001    0.2900000000000000    0.6000000000000000 Pt
   0.6600000000000000    0.3900000000000001    0.5999999999999999 Pt
   0.6600000000000001    0.4900000000000001    0.5999999999999999 Pt
   0.6600000000000001    0.5900000000000001    0.6000000000000000 Pt
   0.6600000000000003    0.6900000000000002    0.6000000000000000 Pt
   0.6600000000000003    0.7900000000000001    0.6000000000000000 Pt
   0.6600000000000001    0.8900000000000001    0.6000000000000000 Pt
   0.6600000000000001    0.9900000000000001    0.5999999999999999 Pt
   0.7600000000000001    0.0900000000000000    0.6000000000000000 Pt
   0.7600000000000001    0.1900000000000001    0.6000000000000000 Pt
   0.7600000000000002    0.2900000000000000    0.5999999999999999 Pt
   0.7600000000000000    0.3900000000000001    0.5999999999999999 Pt
   0.7600000000000002    0.4900000000000001    0.6000000000000000 Pt
   0.7600000000000000    0.5900000000000001    0.5999999999999999 Pt
   0.7600000000000001    0.6900000000000002    0.6000000000000000 Pt
   0.7600000000000001    0.7900000000000001    0.6000000000000000 Pt
   0.7600000000000000    0.8900000000000001    0.5999999999999999 Pt
   0.7600000000000000    0.9900000000000001    0.6000000000000000 Pt
   0.8600000000000000    0.0900000000000000    0.6000000000000000 Pt
   0.8600000000000000    0.1900000000000001    0.6000000000000000 Pt
   0.8600000000000000    0.2900000000000000    0.5999999999999999 Pt
   0.8600000000000000    0.3900000000000001    0.6000000000000000 Pt
   0.8600000000000001    0.4900000000000001    0.6000000000000000 Pt
   0.8599999999999999    0.5900000000000001    0.6000000000000000 Pt
   0.8600000000000000    0.6900000000000002    0.6000000000000000 Pt
   0.8600000000000000    0.7900000000000001    0.5999999999999999 Pt
   0.8600000000000001    0.8900000000000001    0.6000000000000000 Pt
   0.8599999999999999    0.9900000000000001    0.6000000000000000 Pt
   0.9600000000000000    0.0900000000000000    0.5999999999999999 Pt
   0.9600000000000000    0.1900000000000001    0.6000000000000000 Pt
   0.9600000000000001    0.2900000000000000    0.6000000000000000 Pt
   0.9599999999999999    0.3900000000000001    0.6000000000000000 Pt
   0.9600000000000000    0.4900000000000001    0.6000000000000000 Pt
   0.9600000000000000    0.5900000000000001    0.6000000000000000 Pt
   0.9599999999999999    0.6900000000000002    0.5999999999999999 Pt
   0.9600000000000001    0.7900000000000001    0.6000000000000000 Pt
   0.9600000000000000    0.8900000000000001    0.6000000000000000 Pt
   0.9600000000000000    0.9900000000000001    0.5999999999999999 Pt
