! generated by cif2x.py
&control
    calculation = 'scf'
    outdir = './work'
    prefix = 'pwscf'
    pseudo_dir = './pseudo'
/

&electrons
    conv_thr = 1e-05
    mixing_beta = 0.1
/

&system
    degauss = 0.01
    ecutrho = 0.0
    ecutwfc = 0.0
    ibrav = 0
    nat = 30
    ntyp = 3
    occupations = 'smearing'
    smearing = 'm-p'
/
CELL_PARAMETERS {angstrom}
8.306611  0.000000  0.508356
4.137750  7.202695  0.508356
0.000000  0.000000  22.706583

ATOMIC_SPECIES
H  1.007940  H.pbe-rrkjus_psl.0.1.UPF
Pt  195.084000  Pt.pbe-n-rrkjus_psl.0.1.UPF
O  15.999400  O.pbe-n-rrkjus_psl.0.1.UPF

ATOMIC_POSITIONS {crystal}
H  0.304812  0.283047  0.692704
H  0.087180  0.410697  0.692704
Pt  0.333333  0.100000  0.400000
Pt  0.333333  0.433333  0.400000
Pt  0.333333  0.766667  0.400000
Pt  0.666667  0.100000  0.400000
Pt  0.666667  0.433333  0.400000
Pt  0.666667  0.766667  0.400000
Pt  0.000000  0.100000  0.400000
Pt  0.000000  0.433333  0.400000
Pt  0.000000  0.766667  0.400000
Pt  0.100000  0.200000  0.500000
Pt  0.100000  0.533333  0.500000
Pt  0.100000  0.866667  0.500000
Pt  0.433333  0.200000  0.500000
Pt  0.433333  0.533333  0.500000
Pt  0.433333  0.866667  0.500000
Pt  0.766667  0.200000  0.500000
Pt  0.766667  0.533333  0.500000
Pt  0.766667  0.866667  0.500000
Pt  0.200000  0.300000  0.600000
Pt  0.200000  0.633333  0.600000
Pt  0.200000  0.966667  0.600000
Pt  0.533333  0.300000  0.600000
Pt  0.533333  0.633333  0.600000
Pt  0.533333  0.966667  0.600000
Pt  0.866667  0.300000  0.600000
Pt  0.866667  0.633333  0.600000
Pt  0.866667  0.966667  0.600000
O  0.189457  0.283047  0.692704

K_POINTS {automatic}
6  6  2  0  0  0

